results/x-long/X-n129-k18.vrp_seed-32.out
28954	1159
