results/x-long/X-n129-k18.vrp_seed-32.vrp.sol
Route #1: 3
Route #2: 64 18 59 23 1 44 90
Route #3: 60 77 35 57 13 56 62
Route #4: 67 30 43 84 25 39 93
Route #5: 78 50 52 27 113 88 86
Route #6: 22 29 58 40 55 41 61 85 101
Route #7: 38 118 28 127 47
Route #8: 102 112 72 108 71 126 26
Route #9: 32 114 73 96 95 116 92 49 100
Route #10: 121 111 81 36 107 128 106
Route #11: 53 123 5 122 115 117 70
Route #12: 15 66 89 103 75 91
Route #13: 82 124 7 54 6 9
Route #14: 83 109 51 120 69 31 125
Route #15: 24 97 8 37 12 16 42 99 14 74
Route #16: 119 80 68 98 4 94 87 63 20
Route #17: 19 45 48 2 34 21 33 46
Route #18: 110 17 11 76 79 10 104 105 65
Cost 28954.000000